
Gurobi 11.0.1 (win64) logging started Wed Mar 13 20:00:53 2024

Set parameter LogFile to value "C:\Projetos\Job_Rotation_Algorithms\Outputs\GurobiLogs\gurobi_log-output-39_ros-c22-CostaMirallesModel-NoExtraConstraint-2.log"
Gurobi Optimizer version 11.0.1 build v11.0.1rc0 (win64 - Windows 10.0 (19045.2))

CPU model: 11th Gen Intel(R) Core(TM) i7-1165G7 @ 2.80GHz, instruction set [SSE2|AVX|AVX2|AVX512]
Thread count: 4 physical cores, 8 logical processors, using up to 1 threads


Gurobi 11.0.1 (win64) logging started Thu Mar 14 07:59:10 2024

Set parameter LogFile to value "C:\Projetos\Job_Rotation_Algorithms\Outputs\GurobiLogs\gurobi_log-output-39_ros-c22-CostaMirallesModel-NoExtraConstraint-2.log"
Gurobi Optimizer version 11.0.1 build v11.0.1rc0 (win64 - Windows 10.0 (19045.2))

CPU model: 11th Gen Intel(R) Core(TM) i7-1165G7 @ 2.80GHz, instruction set [SSE2|AVX|AVX2|AVX512]
Thread count: 4 physical cores, 8 logical processors, using up to 1 threads


Gurobi 11.0.1 (win64) logging started Fri Mar 15 00:36:38 2024

Set parameter LogFile to value "C:\Projetos\Job_Rotation_Algorithms\Outputs\GurobiLogs\gurobi_log-output-39_ros-c22-CostaMirallesModel-NoExtraConstraint-2.log"
Gurobi Optimizer version 11.0.1 build v11.0.1rc0 (win64 - Windows 10.0 (19045.2))

CPU model: 11th Gen Intel(R) Core(TM) i7-1165G7 @ 2.80GHz, instruction set [SSE2|AVX|AVX2|AVX512]
Thread count: 4 physical cores, 8 logical processors, using up to 1 threads


Gurobi 11.0.1 (win64) logging started Fri Mar 15 08:42:55 2024

Set parameter LogFile to value "C:\Projetos\Job_Rotation_Algorithms\Outputs\GurobiLogs\gurobi_log-output-39_ros-c22-CostaMirallesModel-NoExtraConstraint-2.log"
Gurobi Optimizer version 11.0.1 build v11.0.1rc0 (win64 - Windows 10.0 (19045.2))

CPU model: 11th Gen Intel(R) Core(TM) i7-1165G7 @ 2.80GHz, instruction set [SSE2|AVX|AVX2|AVX512]
Thread count: 4 physical cores, 8 logical processors, using up to 1 threads

WLS license 901039 - registered to Bitka Analytics
Optimize a model with 416 rows, 799 columns and 6219 nonzeros
Model fingerprint: 0x168f2e22
Variable types: 2 continuous, 797 integer (797 binary)
Coefficient statistics:
  Matrix range     [1e+00, 3e+01]
  Objective range  [1e+00, 1e+00]
  Bounds range     [1e+00, 4e+01]
  RHS range        [1e+00, 4e+01]
Presolve removed 67 rows and 185 columns
Presolve time: 0.03s
Presolved: 349 rows, 614 columns, 4157 nonzeros
Variable types: 0 continuous, 614 integer (613 binary)

Root relaxation: objective 5.000000e+01, 447 iterations, 0.02 seconds (0.01 work units)

    Nodes    |    Current Node    |     Objective Bounds      |     Work
 Expl Unexpl |  Obj  Depth IntInf | Incumbent    BestBd   Gap | It/Node Time

     0     0   50.00000    0   18          -   50.00000      -     -    0s
     0     0   50.00000    0  187          -   50.00000      -     -    0s
     0     0   50.00000    0  179          -   50.00000      -     -    0s
     0     0   50.00000    0   41          -   50.00000      -     -    0s
     0     0   50.00000    0   65          -   50.00000      -     -    0s
     0     0   50.00000    0   14          -   50.00000      -     -    0s
     0     0   50.00000    0   93          -   50.00000      -     -    0s
     0     0   50.00000    0   75          -   50.00000      -     -    0s
     0     0   50.00000    0  131          -   50.00000      -     -    0s
     0     0   50.00000    0   60          -   50.00000      -     -    0s
     0     0   50.00000    0   60          -   50.00000      -     -    0s
     0     2   50.00000    0   43          -   50.00000      -     -    0s
*  218    85              27      37.0000000   50.00000  35.1%  52.4    0s
H  570   106                      38.0000000   50.00000  31.6%  80.5    2s
*  937    96              19      39.0000000   49.79487  27.7%   103    3s

Cutting planes:
  Learned: 1
  Gomory: 3
  Cover: 613
  Implied bound: 9
  Clique: 115
  MIR: 63
  StrongCG: 14
  GUB cover: 37
  Inf proof: 6
  Zero half: 5
  RLT: 7
  BQP: 2

Explored 1208 nodes (113698 simplex iterations) in 4.01 seconds (4.20 work units)
Thread count was 1 (of 8 available processors)

Solution count 3: 39 38 37 

Optimal solution found (tolerance 1.00e-03)
Best objective 3.900000000000e+01, best bound 3.900000000000e+01, gap 0.0000%
